(declare-const X String)
; ^((0?[1-9]|1[012])(:[0-5]\d){1,2}(\ [AaPp][Mm]))$
(assert (not (str.in.re X (re.++ (str.to.re "\x0a") (re.union (re.++ (re.opt (str.to.re "0")) (re.range "1" "9")) (re.++ (str.to.re "1") (re.union (str.to.re "0") (str.to.re "1") (str.to.re "2")))) ((_ re.loop 1 2) (re.++ (str.to.re ":") (re.range "0" "5") (re.range "0" "9"))) (str.to.re " ") (re.union (str.to.re "A") (str.to.re "a") (str.to.re "P") (str.to.re "p")) (re.union (str.to.re "M") (str.to.re "m"))))))
; ^([0-9a-fA-F][0-9a-fA-F]:){5}([0-9a-fA-F][0-9a-fA-F])$
(assert (str.in.re X (re.++ ((_ re.loop 5 5) (re.++ (re.union (re.range "0" "9") (re.range "a" "f") (re.range "A" "F")) (re.union (re.range "0" "9") (re.range "a" "f") (re.range "A" "F")) (str.to.re ":"))) (str.to.re "\x0a") (re.union (re.range "0" "9") (re.range "a" "f") (re.range "A" "F")) (re.union (re.range "0" "9") (re.range "a" "f") (re.range "A" "F")))))
; ^(3[0-1]|2[0-9]|1[0-9]|0[1-9])[\s{1}|\/|-](Jan|JAN|Feb|FEB|Mar|MAR|Apr|APR|May|MAY|Jun|JUN|Jul|JUL|Aug|AUG|Sep|SEP|Oct|OCT|Nov|NOV|Dec|DEC)[\s{1}|\/|-]\d{4}$
(assert (str.in.re X (re.++ (re.union (re.++ (str.to.re "3") (re.range "0" "1")) (re.++ (str.to.re "2") (re.range "0" "9")) (re.++ (str.to.re "1") (re.range "0" "9")) (re.++ (str.to.re "0") (re.range "1" "9"))) (re.union (str.to.re "{") (str.to.re "1") (str.to.re "}") (str.to.re "|") (str.to.re "/") (str.to.re "-") (str.to.re " ") (str.to.re "\x09") (str.to.re "\x0a") (str.to.re "\x0c") (str.to.re "\x0d")) (re.union (str.to.re "Jan") (str.to.re "JAN") (str.to.re "Feb") (str.to.re "FEB") (str.to.re "Mar") (str.to.re "MAR") (str.to.re "Apr") (str.to.re "APR") (str.to.re "May") (str.to.re "MAY") (str.to.re "Jun") (str.to.re "JUN") (str.to.re "Jul") (str.to.re "JUL") (str.to.re "Aug") (str.to.re "AUG") (str.to.re "Sep") (str.to.re "SEP") (str.to.re "Oct") (str.to.re "OCT") (str.to.re "Nov") (str.to.re "NOV") (str.to.re "Dec") (str.to.re "DEC")) (re.union (str.to.re "{") (str.to.re "1") (str.to.re "}") (str.to.re "|") (str.to.re "/") (str.to.re "-") (str.to.re " ") (str.to.re "\x09") (str.to.re "\x0a") (str.to.re "\x0c") (str.to.re "\x0d")) ((_ re.loop 4 4) (re.range "0" "9")) (str.to.re "\x0a"))))
(check-sat)
